Minimize
 obj: + 125.7 x_user1_load0_hour0 + 133.3 x_user1_load0_hour1 
 + 137 x_user1_load0_hour2 + 152.4 x_user1_load0_hour3 
 + 159.9 x_user1_load0_hour4 + 165.5 x_user1_load0_hour5 
 + 167.2 x_user1_load0_hour6 + 178.7 x_user1_load0_hour7 
 + 192.3 x_user1_load0_hour8 + 200 x_user1_load0_hour9 
 + 211.4 x_user1_load0_hour10 + 219.9 x_user1_load0_hour11 
 + 129.6 x_user1_load1_hour0 + 128.4 x_user1_load1_hour1 
 + 139 x_user1_load1_hour2 + 151.4 x_user1_load1_hour3 
 + 163.8 x_user1_load1_hour4 + 162.6 x_user1_load1_hour5 
 + 165.2 x_user1_load1_hour6 + 181.6 x_user1_load1_hour7 
 + 190.4 x_user1_load1_hour8 + 201 x_user1_load1_hour9 
 + 211.4 x_user1_load1_hour10 + 219.8 x_user1_load1_hour11 
 + 228.6 x_user1_load1_hour12 + 144.2 x_user1_load2_hour0 
 + 159.1 x_user1_load2_hour1 + 159.3 x_user1_load2_hour2 
 + 179.1 x_user1_load2_hour3 + 184.1 x_user1_load2_hour4 
 + 195 x_user1_load2_hour5 + 197.2 x_user1_load2_hour6 
 + 207.2 x_user1_load2_hour7 + 226.1 x_user1_load2_hour8 
 + 233.3 x_user1_load2_hour9 + 247.1 x_user1_load2_hour10 
 + 257.1 x_user1_load2_hour11 + 82.4 x_user1_load3_hour0 
 + 88.1 x_user1_load3_hour1 + 87 x_user1_load3_hour2 
 + 98.6 x_user1_load3_hour3 + 105.2 x_user1_load3_hour4 
 + 110.9 x_user1_load3_hour5 + 107.8 x_user1_load3_hour6 
 + 115.4 x_user1_load3_hour7 + 126.1 x_user1_load3_hour8 
 + 130 x_user1_load3_hour9 + 138.6 x_user1_load3_hour10 
 + 144.2 x_user1_load3_hour11 + 149.9 x_user1_load3_hour12 
 + 147.6 x_user1_load4_hour0 + 160.5 x_user1_load4_hour1 
 + 161.7 x_user1_load4_hour2 + 177.6 x_user1_load4_hour3 
 + 185.5 x_user1_load4_hour4 + 198.4 x_user1_load4_hour5 
 + 197.7 x_user1_load4_hour6 + 209.6 x_user1_load4_hour7 
 + 227.5 x_user1_load4_hour8 + 234.7 x_user1_load4_hour9 
 + 248.6 x_user1_load4_hour10 + 60 x_user1_load5_hour0 
 + 67.2 x_user1_load5_hour1 + 62.7 x_user1_load5_hour2 
 + 72.9 x_user1_load5_hour3 + 77.1 x_user1_load5_hour4 
 + 84.3 x_user1_load5_hour5 + 79.8 x_user1_load5_hour6 
 + 84 x_user1_load5_hour7 + 94.2 x_user1_load5_hour8 
 + 95.7 x_user1_load5_hour9 + 102.9 x_user1_load5_hour10 
 + 107.1 x_user1_load5_hour11 + 111.3 x_user1_load5_hour12 
 + 115.8 x_user1_load5_hour13 + 107.2 x_user1_load6_hour0 
 + 107.5 x_user1_load6_hour1 + 114.7 x_user1_load6_hour2 
 + 125.7 x_user1_load6_hour3 + 135.7 x_user1_load6_hour4 
 + 136 x_user1_load6_hour5 + 137.2 x_user1_load6_hour6 
 + 150.2 x_user1_load6_hour7 + 158.5 x_user1_load6_hour8 
 + 166.7 x_user1_load6_hour9 + 175.7 x_user1_load6_hour10 
 + 182.7 x_user1_load6_hour11 + 190 x_user1_load6_hour12 

Subject To 
 load_load0_scheduled: + 1 x_user1_load0_hour0 + 1 x_user1_load0_hour1 
 + 1 x_user1_load0_hour2 + 1 x_user1_load0_hour3 + 1 x_user1_load0_hour4 
 + 1 x_user1_load0_hour5 + 1 x_user1_load0_hour6 + 1 x_user1_load0_hour7 
 + 1 x_user1_load0_hour8 + 1 x_user1_load0_hour9 + 1 x_user1_load0_hour10 
 + 1 x_user1_load0_hour11  = 1.0
 load_load1_scheduled: + 1 x_user1_load1_hour0 + 1 x_user1_load1_hour1 
 + 1 x_user1_load1_hour2 + 1 x_user1_load1_hour3 + 1 x_user1_load1_hour4 
 + 1 x_user1_load1_hour5 + 1 x_user1_load1_hour6 + 1 x_user1_load1_hour7 
 + 1 x_user1_load1_hour8 + 1 x_user1_load1_hour9 + 1 x_user1_load1_hour10 
 + 1 x_user1_load1_hour11 + 1 x_user1_load1_hour12  = 1.0
 load_load2_scheduled: + 1 x_user1_load2_hour0 + 1 x_user1_load2_hour1 
 + 1 x_user1_load2_hour2 + 1 x_user1_load2_hour3 + 1 x_user1_load2_hour4 
 + 1 x_user1_load2_hour5 + 1 x_user1_load2_hour6 + 1 x_user1_load2_hour7 
 + 1 x_user1_load2_hour8 + 1 x_user1_load2_hour9 + 1 x_user1_load2_hour10 
 + 1 x_user1_load2_hour11  = 1.0
 load_load3_scheduled: + 1 x_user1_load3_hour0 + 1 x_user1_load3_hour1 
 + 1 x_user1_load3_hour2 + 1 x_user1_load3_hour3 + 1 x_user1_load3_hour4 
 + 1 x_user1_load3_hour5 + 1 x_user1_load3_hour6 + 1 x_user1_load3_hour7 
 + 1 x_user1_load3_hour8 + 1 x_user1_load3_hour9 + 1 x_user1_load3_hour10 
 + 1 x_user1_load3_hour11 + 1 x_user1_load3_hour12  = 1.0
 load_load4_scheduled: + 1 x_user1_load4_hour0 + 1 x_user1_load4_hour1 
 + 1 x_user1_load4_hour2 + 1 x_user1_load4_hour3 + 1 x_user1_load4_hour4 
 + 1 x_user1_load4_hour5 + 1 x_user1_load4_hour6 + 1 x_user1_load4_hour7 
 + 1 x_user1_load4_hour8 + 1 x_user1_load4_hour9 + 1 x_user1_load4_hour10 
  = 1.0
 load_load5_scheduled: + 1 x_user1_load5_hour0 + 1 x_user1_load5_hour1 
 + 1 x_user1_load5_hour2 + 1 x_user1_load5_hour3 + 1 x_user1_load5_hour4 
 + 1 x_user1_load5_hour5 + 1 x_user1_load5_hour6 + 1 x_user1_load5_hour7 
 + 1 x_user1_load5_hour8 + 1 x_user1_load5_hour9 + 1 x_user1_load5_hour10 
 + 1 x_user1_load5_hour11 + 1 x_user1_load5_hour12 + 1 x_user1_load5_hour13 
  = 1.0
 load_load6_scheduled: + 1 x_user1_load6_hour0 + 1 x_user1_load6_hour1 
 + 1 x_user1_load6_hour2 + 1 x_user1_load6_hour3 + 1 x_user1_load6_hour4 
 + 1 x_user1_load6_hour5 + 1 x_user1_load6_hour6 + 1 x_user1_load6_hour7 
 + 1 x_user1_load6_hour8 + 1 x_user1_load6_hour9 + 1 x_user1_load6_hour10 
 + 1 x_user1_load6_hour11 + 1 x_user1_load6_hour12  = 1.0
 MaxLoadConnection_user1_0: + 3 x_user1_load0_hour0 + 2 x_user1_load1_hour0 
 + 4 x_user1_load2_hour0 + 3 x_user1_load3_hour0 + 4 x_user1_load4_hour0 
 + 3 x_user1_load5_hour0 + 2 x_user1_load6_hour0  <= 4.0
 MaxLoadConnection_user1_1: + 3 x_user1_load0_hour1 + 2 x_user1_load0_hour0 
 + 2 x_user1_load1_hour1 + 4 x_user1_load1_hour0 + 4 x_user1_load2_hour1 
 + 1 x_user1_load2_hour0 + 3 x_user1_load3_hour1 + 1 x_user1_load3_hour0 
 + 4 x_user1_load4_hour1 + 1 x_user1_load4_hour0 + 3 x_user1_load5_hour1 
 + 2 x_user1_load6_hour1 + 3 x_user1_load6_hour0  <= 4.0
 MaxLoadConnection_user1_2: + 3 x_user1_load0_hour2 + 2 x_user1_load0_hour1 
 + 1 x_user1_load0_hour0 + 2 x_user1_load1_hour2 + 4 x_user1_load1_hour1 
 + 4 x_user1_load2_hour2 + 1 x_user1_load2_hour1 + 2 x_user1_load2_hour0 
 + 3 x_user1_load3_hour2 + 1 x_user1_load3_hour1 + 4 x_user1_load4_hour2 
 + 1 x_user1_load4_hour1 + 1 x_user1_load4_hour0 + 3 x_user1_load5_hour2 
 + 2 x_user1_load6_hour2 + 3 x_user1_load6_hour1  <= 4.0
 MaxLoadConnection_user1_3: + 3 x_user1_load0_hour3 + 2 x_user1_load0_hour2 
 + 1 x_user1_load0_hour1 + 2 x_user1_load1_hour3 + 4 x_user1_load1_hour2 
 + 4 x_user1_load2_hour3 + 1 x_user1_load2_hour2 + 2 x_user1_load2_hour1 
 + 3 x_user1_load3_hour3 + 1 x_user1_load3_hour2 + 4 x_user1_load4_hour3 
 + 1 x_user1_load4_hour2 + 1 x_user1_load4_hour1 + 1 x_user1_load4_hour0 
 + 3 x_user1_load5_hour3 + 2 x_user1_load6_hour3 + 3 x_user1_load6_hour2 
  <= 4.0
 MaxLoadConnection_user1_4: + 3 x_user1_load0_hour4 + 2 x_user1_load0_hour3 
 + 1 x_user1_load0_hour2 + 2 x_user1_load1_hour4 + 4 x_user1_load1_hour3 
 + 4 x_user1_load2_hour4 + 1 x_user1_load2_hour3 + 2 x_user1_load2_hour2 
 + 3 x_user1_load3_hour4 + 1 x_user1_load3_hour3 + 4 x_user1_load4_hour4 
 + 1 x_user1_load4_hour3 + 1 x_user1_load4_hour2 + 1 x_user1_load4_hour1 
 + 3 x_user1_load5_hour4 + 2 x_user1_load6_hour4 + 3 x_user1_load6_hour3 
  <= 4.0
 MaxLoadConnection_user1_5: + 3 x_user1_load0_hour5 + 2 x_user1_load0_hour4 
 + 1 x_user1_load0_hour3 + 2 x_user1_load1_hour5 + 4 x_user1_load1_hour4 
 + 4 x_user1_load2_hour5 + 1 x_user1_load2_hour4 + 2 x_user1_load2_hour3 
 + 3 x_user1_load3_hour5 + 1 x_user1_load3_hour4 + 4 x_user1_load4_hour5 
 + 1 x_user1_load4_hour4 + 1 x_user1_load4_hour3 + 1 x_user1_load4_hour2 
 + 3 x_user1_load5_hour5 + 2 x_user1_load6_hour5 + 3 x_user1_load6_hour4 
  <= 4.0
 MaxLoadConnection_user1_6: + 3 x_user1_load0_hour6 + 2 x_user1_load0_hour5 
 + 1 x_user1_load0_hour4 + 2 x_user1_load1_hour6 + 4 x_user1_load1_hour5 
 + 4 x_user1_load2_hour6 + 1 x_user1_load2_hour5 + 2 x_user1_load2_hour4 
 + 3 x_user1_load3_hour6 + 1 x_user1_load3_hour5 + 4 x_user1_load4_hour6 
 + 1 x_user1_load4_hour5 + 1 x_user1_load4_hour4 + 1 x_user1_load4_hour3 
 + 3 x_user1_load5_hour6 + 2 x_user1_load6_hour6 + 3 x_user1_load6_hour5 
  <= 4.0
 MaxLoadConnection_user1_7: + 3 x_user1_load0_hour7 + 2 x_user1_load0_hour6 
 + 1 x_user1_load0_hour5 + 2 x_user1_load1_hour7 + 4 x_user1_load1_hour6 
 + 4 x_user1_load2_hour7 + 1 x_user1_load2_hour6 + 2 x_user1_load2_hour5 
 + 3 x_user1_load3_hour7 + 1 x_user1_load3_hour6 + 4 x_user1_load4_hour7 
 + 1 x_user1_load4_hour6 + 1 x_user1_load4_hour5 + 1 x_user1_load4_hour4 
 + 3 x_user1_load5_hour7 + 2 x_user1_load6_hour7 + 3 x_user1_load6_hour6 
  <= 4.0
 MaxLoadConnection_user1_8: + 3 x_user1_load0_hour8 + 2 x_user1_load0_hour7 
 + 1 x_user1_load0_hour6 + 2 x_user1_load1_hour8 + 4 x_user1_load1_hour7 
 + 4 x_user1_load2_hour8 + 1 x_user1_load2_hour7 + 2 x_user1_load2_hour6 
 + 3 x_user1_load3_hour8 + 1 x_user1_load3_hour7 + 4 x_user1_load4_hour8 
 + 1 x_user1_load4_hour7 + 1 x_user1_load4_hour6 + 1 x_user1_load4_hour5 
 + 3 x_user1_load5_hour8 + 2 x_user1_load6_hour8 + 3 x_user1_load6_hour7 
  <= 4.0
 MaxLoadConnection_user1_9: + 3 x_user1_load0_hour9 + 2 x_user1_load0_hour8 
 + 1 x_user1_load0_hour7 + 2 x_user1_load1_hour9 + 4 x_user1_load1_hour8 
 + 4 x_user1_load2_hour9 + 1 x_user1_load2_hour8 + 2 x_user1_load2_hour7 
 + 3 x_user1_load3_hour9 + 1 x_user1_load3_hour8 + 4 x_user1_load4_hour9 
 + 1 x_user1_load4_hour8 + 1 x_user1_load4_hour7 + 1 x_user1_load4_hour6 
 + 3 x_user1_load5_hour9 + 2 x_user1_load6_hour9 + 3 x_user1_load6_hour8 
  <= 4.0
 MaxLoadConnection_user1_10: + 3 x_user1_load0_hour10 + 2 x_user1_load0_hour9 
 + 1 x_user1_load0_hour8 + 2 x_user1_load1_hour10 + 4 x_user1_load1_hour9 
 + 4 x_user1_load2_hour10 + 1 x_user1_load2_hour9 + 2 x_user1_load2_hour8 
 + 3 x_user1_load3_hour10 + 1 x_user1_load3_hour9 + 4 x_user1_load4_hour10 
 + 1 x_user1_load4_hour9 + 1 x_user1_load4_hour8 + 1 x_user1_load4_hour7 
 + 3 x_user1_load5_hour10 + 2 x_user1_load6_hour10 + 3 x_user1_load6_hour9 
  <= 4.0
 MaxLoadConnection_user1_11: + 3 x_user1_load0_hour11 + 2 x_user1_load0_hour10 
 + 1 x_user1_load0_hour9 + 2 x_user1_load1_hour11 + 4 x_user1_load1_hour10 
 + 4 x_user1_load2_hour11 + 1 x_user1_load2_hour10 + 2 x_user1_load2_hour9 
 + 3 x_user1_load3_hour11 + 1 x_user1_load3_hour10 + 1 x_user1_load4_hour10 
 + 1 x_user1_load4_hour9 + 1 x_user1_load4_hour8 + 3 x_user1_load5_hour11 
 + 2 x_user1_load6_hour11 + 3 x_user1_load6_hour10  <= 4.0
 MaxLoadConnection_user1_12: + 2 x_user1_load0_hour11 + 1 x_user1_load0_hour10 
 + 2 x_user1_load1_hour12 + 4 x_user1_load1_hour11 + 1 x_user1_load2_hour11 
 + 2 x_user1_load2_hour10 + 3 x_user1_load3_hour12 + 1 x_user1_load3_hour11 
 + 1 x_user1_load4_hour10 + 1 x_user1_load4_hour9 + 3 x_user1_load5_hour12 
 + 2 x_user1_load6_hour12 + 3 x_user1_load6_hour11  <= 4.0
 MaxLoadConnection_user1_13: + 1 x_user1_load0_hour11 + 4 x_user1_load1_hour12 
 + 2 x_user1_load2_hour11 + 1 x_user1_load3_hour12 + 1 x_user1_load4_hour10 
 + 3 x_user1_load5_hour13 + 3 x_user1_load6_hour12  <= 4.0

Bounds

Binary
 x_user1_load0_hour0 x_user1_load0_hour1 x_user1_load0_hour2
  x_user1_load0_hour3 x_user1_load0_hour4 x_user1_load0_hour5
  x_user1_load0_hour6 x_user1_load0_hour7 x_user1_load0_hour8
  x_user1_load0_hour9 x_user1_load0_hour10 x_user1_load0_hour11
  x_user1_load1_hour0 x_user1_load1_hour1 x_user1_load1_hour2
  x_user1_load1_hour3 x_user1_load1_hour4 x_user1_load1_hour5
  x_user1_load1_hour6 x_user1_load1_hour7 x_user1_load1_hour8
  x_user1_load1_hour9 x_user1_load1_hour10 x_user1_load1_hour11
  x_user1_load1_hour12 x_user1_load2_hour0 x_user1_load2_hour1
  x_user1_load2_hour2 x_user1_load2_hour3 x_user1_load2_hour4
  x_user1_load2_hour5 x_user1_load2_hour6 x_user1_load2_hour7
  x_user1_load2_hour8 x_user1_load2_hour9 x_user1_load2_hour10
  x_user1_load2_hour11 x_user1_load3_hour0 x_user1_load3_hour1
  x_user1_load3_hour2 x_user1_load3_hour3 x_user1_load3_hour4
  x_user1_load3_hour5 x_user1_load3_hour6 x_user1_load3_hour7
  x_user1_load3_hour8 x_user1_load3_hour9 x_user1_load3_hour10
  x_user1_load3_hour11 x_user1_load3_hour12 x_user1_load4_hour0
  x_user1_load4_hour1 x_user1_load4_hour2 x_user1_load4_hour3
  x_user1_load4_hour4 x_user1_load4_hour5 x_user1_load4_hour6
  x_user1_load4_hour7 x_user1_load4_hour8 x_user1_load4_hour9
  x_user1_load4_hour10 x_user1_load5_hour0 x_user1_load5_hour1
  x_user1_load5_hour2 x_user1_load5_hour3 x_user1_load5_hour4
  x_user1_load5_hour5 x_user1_load5_hour6 x_user1_load5_hour7
  x_user1_load5_hour8 x_user1_load5_hour9 x_user1_load5_hour10
  x_user1_load5_hour11 x_user1_load5_hour12 x_user1_load5_hour13
  x_user1_load6_hour0 x_user1_load6_hour1 x_user1_load6_hour2
  x_user1_load6_hour3 x_user1_load6_hour4 x_user1_load6_hour5
  x_user1_load6_hour6 x_user1_load6_hour7 x_user1_load6_hour8
  x_user1_load6_hour9 x_user1_load6_hour10 x_user1_load6_hour11
  x_user1_load6_hour12
General

End